(set-logic QF_SLIA)
(declare-const result String)
(declare-const attack String)
(declare-const prefix RegLan)
(declare-const infix RegLan)
(declare-const postfix RegLan)
(declare-const postfixs String)

(assert (str.in_re attack (re.++ prefix ((_ re.loop 32 32) infix) postfix)))
(assert (= prefix 
     (str.to_re "\x22")
))
(assert (= infix 
         (re.++  (str.to_re "\x26")  (re.union  (re.++  (str.to_re "\x5c\x72") (re.opt  (str.to_re "\x5c\x6e") ))  (str.to_re "\x5c\x6e"))) (re.inter (re.* (re.union (re.range "\t" "\t") (re.range "\n" "\n") (re.range "\r" "\r") (str.to_re " ")) )  (str.to_re "\x5c\x6e") )  (re.++  (str.to_re "\x21") (re.++ (re.+ re.allchar ) (re.++ (re.* (re.union (re.range "\t" "\t") (re.range "\n" "\n") (re.range "\r" "\r") (str.to_re " ")) ) (re.++  (str.to_re "\x21") (re.+ re.allchar ))))) 
))
(assert (= postfix 
        (re.inter  (re.inter  (re.++  (str.to_re "\x26") (re.++  (str.to_re "\x0d") (re.++  (str.to_re "\x0a") (re.++  (str.to_re "\x21") (re.++  (str.to_re "\x00") (re.++  (str.to_re "\x21") (re.++  (str.to_re "\x00") (re.*  (re.union (re.union (str.to_re "\t") (str.to_re "\n") (str.to_re "\r") (str.to_re " ")) (re.inter re.allchar (re.comp (re.union (str.to_re "\t") (str.to_re "\n") (str.to_re "\r") (str.to_re " "))))) )))))))) (re.comp  (re.++  (str.to_re "\x26") (re.++  (re.union  (re.++  (str.to_re "\x5c\x72") (re.opt  (str.to_re "\x5c\x6e") ))  (str.to_re "\x5c\x6e")) (re.opt  (re.++ (re.* (re.union (re.range "\t" "\t") (re.range "\n" "\n") (re.range "\r" "\r") (str.to_re " ")) ) (re.++  (str.to_re "\x21") (re.++ (re.+ re.allchar )  (re.union  (re.++  (str.to_re "\x5c\x72") (re.opt  (str.to_re "\x5c\x6e") ))  (str.to_re "\x5c\x6e"))))) )))))  (re.inter  (re.++  (str.to_re "\x26") (re.++  (str.to_re "\x0d") (re.++  (str.to_re "\x0a") (re.++  (str.to_re "\x21") (re.++  (str.to_re "\x00") (re.++  (str.to_re "\x21") (re.++  (str.to_re "\x00") (re.*  (re.union (re.union (str.to_re "\t") (str.to_re "\n") (str.to_re "\r") (str.to_re " ")) (re.inter re.allchar (re.comp (re.union (str.to_re "\t") (str.to_re "\n") (str.to_re "\r") (str.to_re " "))))) )))))))) (re.comp  (re.++  (re.++  (str.to_re "\x26") (re.++  (re.union  (re.++  (str.to_re "\x5c\x72") (re.opt  (str.to_re "\x5c\x6e") ))  (str.to_re "\x5c\x6e")) (re.opt  (re.++ (re.* (re.union (re.range "\t" "\t") (re.range "\n" "\n") (re.range "\r" "\r") (str.to_re " ")) ) (re.++  (str.to_re "\x21") (re.++ (re.+ re.allchar )  (re.union  (re.++  (str.to_re "\x5c\x72") (re.opt  (str.to_re "\x5c\x6e") ))  (str.to_re "\x5c\x6e"))))) )))  (re.union  (re.union  (str.to_re "\x22")  (str.to_re "\x27"))  (str.to_re "\x26"))))) )
))
(assert (str.in_re postfixs postfix))
(assert (>= (str.len postfixs) 1))
(assert (= result (str.++ attack postfixs)))
(check-sat)
(get-model)